(set-info :smt-lib-version 2.6)
(set-logic QF_BV)
(set-info :source |
 Patrice Godefroid, SAGE (systematic dynamic test generation)
 For more information: http://research.microsoft.com/en-us/um/people/pg/public_psfiles/ndss2008.pdf
|)
(set-info :category "industrial")
(set-info :status sat)
(declare-fun T1_10761 () (_ BitVec 8))
(declare-fun T2_10369 () (_ BitVec 16))
(declare-fun T1_10360 () (_ BitVec 8))
(declare-fun T2_10763 () (_ BitVec 16))
(declare-fun T4_10361 () (_ BitVec 32))
(declare-fun T1_10980 () (_ BitVec 8))
(declare-fun T1_10918 () (_ BitVec 8))
(declare-fun T1_10857 () (_ BitVec 8))
(declare-fun T1_10806 () (_ BitVec 8))
(declare-fun T1_10765 () (_ BitVec 8))
(declare-fun T1_10763 () (_ BitVec 8))
(declare-fun T1_10764 () (_ BitVec 8))
(declare-fun T1_10369 () (_ BitVec 8))
(declare-fun T1_10370 () (_ BitVec 8))
(declare-fun T1_10361 () (_ BitVec 8))
(declare-fun T1_10362 () (_ BitVec 8))
(declare-fun T1_10363 () (_ BitVec 8))
(declare-fun T1_10364 () (_ BitVec 8))
(assert (let ((?v_6 ((_ zero_extend 24) T1_10761)) (?v_3 ((_ zero_extend 16) T2_10369)) (?v_2 ((_ zero_extend 24) T1_10360))) (let ((?v_4 (bvsub ?v_2 (_ bv8 32)))) (let ((?v_0 (bvsub (bvadd (bvadd (bvadd (bvadd ?v_4 (_ bv4275814 32)) ?v_3) (_ bv7 32)) ?v_6) (_ bv4275781 32)))) (let ((?v_7 (bvadd ?v_0 (_ bv4275784 32))) (?v_5 ((_ zero_extend 16) T2_10763)) (?v_1 ((_ zero_extend 24) T1_10765))) (and true (= T4_10361 (bvor (bvshl (bvor (bvshl (bvor (bvshl ((_ zero_extend 24) T1_10364) (_ bv8 32)) ((_ zero_extend 24) T1_10363)) (_ bv8 32)) ((_ zero_extend 24) T1_10362)) (_ bv8 32)) ((_ zero_extend 24) T1_10361))) (= T2_10369 (bvor (bvshl ((_ zero_extend 8) T1_10370) (_ bv8 16)) ((_ zero_extend 8) T1_10369))) (= T2_10763 (bvor (bvshl ((_ zero_extend 8) T1_10764) (_ bv8 16)) ((_ zero_extend 8) T1_10763))) (bvule (bvsub (bvadd ?v_7 ?v_1) (_ bv1 32)) (bvadd ?v_0 (_ bv4275814 32))) (= (bvadd (bvadd (bvadd (bvadd (bvadd ?v_5 (bvsub (_ bv4294967295 32) ?v_1)) (bvsub (_ bv4294967295 32) ((_ zero_extend 24) T1_10806))) (bvsub (_ bv4294967295 32) ((_ zero_extend 24) T1_10857))) (bvsub (_ bv4294967295 32) ((_ zero_extend 24) T1_10918))) (bvsub (_ bv4294967295 32) ((_ zero_extend 24) T1_10980))) (_ bv0 32)) (bvule (bvadd (bvadd (bvadd (bvadd (bvadd ?v_2 (_ bv1 32)) (_ bv4275805 32)) ?v_3) (_ bv6 32)) (_ bv1 32)) (_ bv4276630 32)) (bvule (_ bv8 32) ?v_2) (not (= ?v_2 (_ bv1 32))) (bvule ?v_4 (_ bv0 32)) (= T4_10361 ?v_3) (not (= ?v_5 (_ bv0 32))) (bvult ?v_6 (_ bv8 32)) (not (= ?v_6 (_ bv0 32))) (= ?v_6 (_ bv1 32)) (not (= ?v_7 (_ bv0 32)))))))))
(check-sat)
(exit)
